11,2	0,0	9,4	6,1	0,0	0,0	0,0	0,0	0,0	11,6
18,5	11,0	0,0	12,4	11,4	0,0	0,0	17,2	0,0	0,0
0,0	0,0	16,8	0,0	14,1	11,0	0,0	0,0	15,4	0,0
12,0	0,0	12,6	0,0	0,0	0,0	8,1	0,0	0,0	0,0
0,0	13,8	0,0	13,1	11,2	0,0	0,0	15,3	0,0	0,0
0,0	7,9	15,5	0,0	10,8	15,4	0,0	0,0	11,5	0,0
0,0	10,4	0,0	19,1	0,0	0,0	10,1	0,0	0,0	5,2
8,6	0,0	10,2	0,0	0,0	0,0	0,0	0,0	0,0	15,5
0,0	17,5	0,0	9,0	9,7	0,0	0,0	12,5	0,0	0,0
0,0	0,0	6,5	0,0	0,0	10,3	8,5	0,0	0,0	8,9
									
2,8	3,3	3,7	2,7	4,9	3,5	2,7	3,7	4,7	4,7
